# Solution for model iteration_180
# Objective value = 1.3587633975033770e+04
0 0
2 1.7986274201018491e+03
3 6315.60365611377
8 6.1032721858498735e+03
9 1.0279333477885159e+03
13 1.5654098757429629e+03
21 1.2073782900359092e+03
22 4.0986244987258187e+03
24 3.7365218159884307e+03
26 3.8307515610102240e+02
28 2.7440365696196463e+03
29 3.9103537091948210e+03
32 3.6041032592964075e+03
33 1.6972003884692394e+03
35 4.6069650686408395e+03
36 2.0357170871494936e+03
37 4.9865011454799587e+03
38 7.1998936442188951e+03
46 7.4456141689406395e+03
47 4.4621074979929390e+03
48 3.9235404657679464e+03
51 5.8088773239568457e+02
55 0
56 6756.83911757391
60 2.2736064460880916e+03
61 6.1626476453378773e+03
62 2.0148984759072168e+03
64 7.0766728008054781e+02
65 1.5600188930995418e+02
72 1.2458572288463238e+03
73 4.9961149376510821e+03
78 1.4169729433435707e+03
81 6.7339991776208162e+03
83 2.1237011763760534e+03
85 5.4468801550769631e+03
88 1.9486101209030194e+03
102 1.7546827525200022e+03
104 6.0708356188987127e+03
105 1.0382516590797527e+03
107 2.8227985447889938e+02
108 3.0650483655351927e+03
111 2.6327545720049811e+03
112 2.5618810344241992e+03
114 1.7445614168940640e+04
115 2.1737082355435555e+03
116 1.0415973313680206e+03
117 6.5732267855702694e+03
124 3.7981101237788771e+03
125 6.6934088609459650e+03
128 2.1089116398392107e+03
131 6901.18659227646
136 7.0330894937356679e+03
138 4.9145540427400829e+03
140 3.4194286345078517e+03
141 0
142 1.6438926599614948e+02
c(32a7a29e-4a6d-4851-9ce9-41308a7212c1,2ea9f62c-f173-44bf-baa7-f60a284a1ad6)_rl 7.5212523415521076e+01
c(32a7a29e-4a6d-4851-9ce9-41308a7212c1,2ea9f62c-f173-44bf-baa7-f60a284a1ad6)_ru 0
c(f6a80a00-09e7-490b-a63a-857b83379e25,fb7ffd1b-2073-46f4-843b-cfef44804024)_rl 4.7504828663730208e+01
c(f6a80a00-09e7-490b-a63a-857b83379e25,fb7ffd1b-2073-46f4-843b-cfef44804024)_ru 0
c(a7b82d52-12df-48fd-9e4d-03793dd5f851,fb7ffd1b-2073-46f4-843b-cfef44804024)_rl 3.8040364377718568e+01
c(a7b82d52-12df-48fd-9e4d-03793dd5f851,fb7ffd1b-2073-46f4-843b-cfef44804024)_ru 2.3496703366780277e+01
c(ee96f3ae-2edc-4599-a181-12b5ae9ef770,94f374c5-97eb-494e-839c-3a4c7afda87f)_rl 0
c(ee96f3ae-2edc-4599-a181-12b5ae9ef770,94f374c5-97eb-494e-839c-3a4c7afda87f)_ru 0
c(3274866d-7517-4202-a8ad-754ef5343585,37e908d6-b411-4e18-86f1-22adf9ce931b)_rl 86.9722896212083
c(3274866d-7517-4202-a8ad-754ef5343585,37e908d6-b411-4e18-86f1-22adf9ce931b)_ru 0
c(0f370cc6-6e34-4405-ba6a-c7dd5aa1fa01,64960983-3d0b-4be7-b704-c11020fc9ef1)_rl 3.1317907016406778e+01
c(0f370cc6-6e34-4405-ba6a-c7dd5aa1fa01,64960983-3d0b-4be7-b704-c11020fc9ef1)_ru 0
c(b2925d55-e90d-4e41-8073-e84cecb3f3bf,c7568ea9-0ed6-4bb7-8ef2-40db47602685)_rl 2.4260643700624694e+01
c(b2925d55-e90d-4e41-8073-e84cecb3f3bf,c7568ea9-0ed6-4bb7-8ef2-40db47602685)_ru 0
c(f12599a6-a139-4891-b89f-116ac4519fa9,43ccb1c7-3d7d-43cf-8b93-31b455c53187)_rl 1.7979607197426387e+02
c(f12599a6-a139-4891-b89f-116ac4519fa9,43ccb1c7-3d7d-43cf-8b93-31b455c53187)_ru 0
c(ba6f9aae-b746-4339-b444-79cea0e66b52,b6cd139f-1501-4bdd-839c-6acafdd7396d)_rl 4.7071145994594190e+01
c(ba6f9aae-b746-4339-b444-79cea0e66b52,b6cd139f-1501-4bdd-839c-6acafdd7396d)_ru 0
c(4f361647-b841-4e2a-8910-f37a8559c95b,e2da089e-4ac5-4672-a53d-717d766ebe91)_rl 3.7056940245077667e+00
c(4f361647-b841-4e2a-8910-f37a8559c95b,e2da089e-4ac5-4672-a53d-717d766ebe91)_ru 0
c(ceb6f997-80c9-4bfa-8e2d-1ad068bed4fe,818cb926-65c4-45aa-a462-f40cec73c6e9)_rl 0
c(ceb6f997-80c9-4bfa-8e2d-1ad068bed4fe,818cb926-65c4-45aa-a462-f40cec73c6e9)_ru 9.3458566181923914e+02
c(f2e870dc-7181-47fc-9178-bc153a0c27ca,07dfcd86-b0ed-40f1-af20-113b0c286461)_rl 2.1235671384105846e+01
c(f2e870dc-7181-47fc-9178-bc153a0c27ca,07dfcd86-b0ed-40f1-af20-113b0c286461)_ru 0
c(3048599e-6d61-4dd7-ad12-5b39c10e7a99,a45f0552-a95a-48c6-9e6e-8324301b49e7)_rl 0
c(3048599e-6d61-4dd7-ad12-5b39c10e7a99,a45f0552-a95a-48c6-9e6e-8324301b49e7)_ru 4.3190765936099055e+01
c(ec7fa2ce-24c8-4d45-9fcd-add3d451cfb9,5823697c-7d26-458e-ae3b-7c52c1ba2009)_rl 0
c(ec7fa2ce-24c8-4d45-9fcd-add3d451cfb9,5823697c-7d26-458e-ae3b-7c52c1ba2009)_ru 0
c(d93cd8db-6a2f-42ae-b84d-3d1e8b163c39,1256efe0-3ad1-4f83-8308-9a6ea0fab10c)_rl 3.9185038187008793e+01
c(d93cd8db-6a2f-42ae-b84d-3d1e8b163c39,1256efe0-3ad1-4f83-8308-9a6ea0fab10c)_ru 0
c(a4eb7f66-233a-4009-9fe5-3c4d5faa7b93,c7568ea9-0ed6-4bb7-8ef2-40db47602685)_rl 5.8619423426801336e+02
c(a4eb7f66-233a-4009-9fe5-3c4d5faa7b93,c7568ea9-0ed6-4bb7-8ef2-40db47602685)_ru 0
c(f0530e2c-347d-45d9-afb1-078f0ef65848,43a0e002-14bd-4b73-a6a5-d3d0fa13dcaf)_rl 1.2989642184368731e+02
c(f0530e2c-347d-45d9-afb1-078f0ef65848,43a0e002-14bd-4b73-a6a5-d3d0fa13dcaf)_ru 0
c(886583a8-2c25-4f6a-8b34-970b7752410a,2e12f565-2d3e-477c-aef6-3b27d2a89957)_rl 0
c(886583a8-2c25-4f6a-8b34-970b7752410a,2e12f565-2d3e-477c-aef6-3b27d2a89957)_ru 2.7296750482225811e+01
c(a83dbfce-9574-442e-96bc-8b19a0ddd237,f457b102-e92c-43e0-88f3-9312d462b2c2)_rl 2.5604061421506974e+00
c(a83dbfce-9574-442e-96bc-8b19a0ddd237,f457b102-e92c-43e0-88f3-9312d462b2c2)_ru 0
c(e603fa14-79b9-405c-b6de-77e0cb90ddd9,933f74e8-2120-4df3-a291-fb7c5241adad)_rl 0
c(e603fa14-79b9-405c-b6de-77e0cb90ddd9,933f74e8-2120-4df3-a291-fb7c5241adad)_ru 5.6178582895320531e+01
c(b99f297d-360f-44f1-b8c0-0df74af5ad8f,c10ec19e-f398-4be2-8173-03aabd34ee06)_rl 0
c(b99f297d-360f-44f1-b8c0-0df74af5ad8f,c10ec19e-f398-4be2-8173-03aabd34ee06)_ru 0
c(17c6a521-560b-4279-bdc3-06ec5cc9fb84,818cb926-65c4-45aa-a462-f40cec73c6e9)_rl 3.9011379785379134e+01
c(17c6a521-560b-4279-bdc3-06ec5cc9fb84,818cb926-65c4-45aa-a462-f40cec73c6e9)_ru 0
c(afccdc67-0638-4d6e-a5a9-fa690f77ff24,818cb926-65c4-45aa-a462-f40cec73c6e9)_rl 2.2700434655924818e+02
c(afccdc67-0638-4d6e-a5a9-fa690f77ff24,818cb926-65c4-45aa-a462-f40cec73c6e9)_ru 0
c(7e3849b7-9b98-44d9-a5af-0725c6e11a7e,a8b26d69-e73a-4304-9c78-950f9ce1360b)_rl 5.9945433746394556e+01
c(7e3849b7-9b98-44d9-a5af-0725c6e11a7e,a8b26d69-e73a-4304-9c78-950f9ce1360b)_ru 0
c(8f8d98e1-4436-4874-8c9b-c03b02da15b8,3129c63a-ce91-4973-81df-d1f9fc132ced)_rl 0
c(8f8d98e1-4436-4874-8c9b-c03b02da15b8,3129c63a-ce91-4973-81df-d1f9fc132ced)_ru 7.3261772547403666e+01
c(418fe142-4b31-4099-b02a-697d7ab53e73,019868b7-2b1e-42ce-8181-1d82144732be)_rl 2.1773637789295469e+02
c(418fe142-4b31-4099-b02a-697d7ab53e73,019868b7-2b1e-42ce-8181-1d82144732be)_ru 0
c(d2167104-3fec-4997-990c-31a805d189c2,37e908d6-b411-4e18-86f1-22adf9ce931b)_rl 7.1417804618796993e+01
c(d2167104-3fec-4997-990c-31a805d189c2,37e908d6-b411-4e18-86f1-22adf9ce931b)_ru 0
c(87012de7-a4ef-4d6d-864f-93f78e564805,2ea9f62c-f173-44bf-baa7-f60a284a1ad6)_rl 0
c(87012de7-a4ef-4d6d-864f-93f78e564805,2ea9f62c-f173-44bf-baa7-f60a284a1ad6)_ru 601.345944351224
c(805df9d0-e1f8-480a-83e4-59a8aa3bf56d,47450f4f-0764-4196-83ab-d30a386da13e)_rl 6.6485861917499130e+02
c(805df9d0-e1f8-480a-83e4-59a8aa3bf56d,47450f4f-0764-4196-83ab-d30a386da13e)_ru 0
c(b9c7402f-b924-4d4d-a937-598041e2e8e6,bbff8ace-5504-4d1e-af66-bbb4e9057570)_rl 0
c(b9c7402f-b924-4d4d-a937-598041e2e8e6,bbff8ace-5504-4d1e-af66-bbb4e9057570)_ru 6.5501500538585651e+00
c(982854bd-cba6-49fc-899a-39435b03a506,37e908d6-b411-4e18-86f1-22adf9ce931b)_rl 0
c(982854bd-cba6-49fc-899a-39435b03a506,37e908d6-b411-4e18-86f1-22adf9ce931b)_ru 3.2370558297971331e+02
c(4426db5a-4579-4287-8059-645b37ceff7a,d54391d4-57a7-4fd6-895d-546923d3eb7a)_rl 2.0486771900325689e+01
c(4426db5a-4579-4287-8059-645b37ceff7a,d54391d4-57a7-4fd6-895d-546923d3eb7a)_ru 0
c(ba52a335-6569-4ec0-9e11-d3f26d62c426,2e6352b3-4511-4bcd-af78-f7f1f0e45b9c)_rl 0
c(ba52a335-6569-4ec0-9e11-d3f26d62c426,2e6352b3-4511-4bcd-af78-f7f1f0e45b9c)_ru 5.3553724501333512e+01
c(8e3fb230-0742-4274-a414-669d0d58e2f3,3129c63a-ce91-4973-81df-d1f9fc132ced)_rl 0
c(8e3fb230-0742-4274-a414-669d0d58e2f3,3129c63a-ce91-4973-81df-d1f9fc132ced)_ru 4.2109714585396318e+01
c(424475b4-d791-4711-9123-2e4611c6d710,35660988-d625-40ab-b884-60423cd94508)_rl 0
c(424475b4-d791-4711-9123-2e4611c6d710,35660988-d625-40ab-b884-60423cd94508)_ru 4.1112324201742609e+02
c(2a47ecce-af85-4f26-a11f-7e9231c7524c,019868b7-2b1e-42ce-8181-1d82144732be)_rl 6.9933075263875466e+01
c(2a47ecce-af85-4f26-a11f-7e9231c7524c,019868b7-2b1e-42ce-8181-1d82144732be)_ru 0
c(13d3bd8b-2b4d-4078-a086-029b947d84b7,fb7ffd1b-2073-46f4-843b-cfef44804024)_rl 4.4223829572726913e+01
c(13d3bd8b-2b4d-4078-a086-029b947d84b7,fb7ffd1b-2073-46f4-843b-cfef44804024)_ru 0
c(c2e16fa4-0855-4951-a806-612dad3c4ce9,f381c49c-3a7d-4913-bd04-249ab0a8fc8a)_rl 4.2586301459236793e+01
c(c2e16fa4-0855-4951-a806-612dad3c4ce9,f381c49c-3a7d-4913-bd04-249ab0a8fc8a)_ru 0
c(7101acd7-1b90-45b9-9b5b-05f82281e738,8af306be-c56e-4929-b622-b49f13b875e7)_rl 0
c(7101acd7-1b90-45b9-9b5b-05f82281e738,8af306be-c56e-4929-b622-b49f13b875e7)_ru 1.5278848318169167e+01
c(d284a337-522f-4341-924c-ec71fb8d55d7,39397add-5278-4335-b7fc-cd8ee6003ef8)_rl 0
c(d284a337-522f-4341-924c-ec71fb8d55d7,39397add-5278-4335-b7fc-cd8ee6003ef8)_ru 2.4627814158128256e+01
c(443bbfdf-fbb8-49c7-b864-1f34f0724a1f,0c37e46e-85ee-4aaa-b71e-9e6b8b253202)_rl 2.4937343059215698e+02
c(443bbfdf-fbb8-49c7-b864-1f34f0724a1f,0c37e46e-85ee-4aaa-b71e-9e6b8b253202)_ru 0
c(ec9349c9-bb3c-4383-982a-c819f4411200,818cb926-65c4-45aa-a462-f40cec73c6e9)_rl 3.2967800811751596e+02
c(ec9349c9-bb3c-4383-982a-c819f4411200,818cb926-65c4-45aa-a462-f40cec73c6e9)_ru 0
c(a8e0968e-0502-41bf-85bd-c7110195156c,aa5b2f1b-1fdf-4b88-9fec-514d1549bebc)_rl 7.2009388105733052e+01
c(a8e0968e-0502-41bf-85bd-c7110195156c,aa5b2f1b-1fdf-4b88-9fec-514d1549bebc)_ru 0
c(b87a753a-66be-43f9-9f9f-fa0eb27a1d72,13b9f273-2ee0-4552-8b28-000affc3c974)_rl 3.1227159135950791e+02
c(b87a753a-66be-43f9-9f9f-fa0eb27a1d72,13b9f273-2ee0-4552-8b28-000affc3c974)_ru 0
c(5b86d162-5112-4511-9255-88f715491ec7,505935f3-f13e-407c-9e0b-1dc6a2e35776)_rl 0
c(5b86d162-5112-4511-9255-88f715491ec7,505935f3-f13e-407c-9e0b-1dc6a2e35776)_ru 2.8229819796592224e+01
c(94e51bd3-7d0b-4f92-96e5-df58f149bf0d,2ea9f62c-f173-44bf-baa7-f60a284a1ad6)_rl 5.6160484315514589e+02
c(94e51bd3-7d0b-4f92-96e5-df58f149bf0d,2ea9f62c-f173-44bf-baa7-f60a284a1ad6)_ru 0
c(d489c886-0c1d-4860-b5d8-2b931a32f90f,a958376f-8afa-4039-a5d1-f214a00d4ae7)_rl 0
c(d489c886-0c1d-4860-b5d8-2b931a32f90f,a958376f-8afa-4039-a5d1-f214a00d4ae7)_ru 0
c(66c95ae3-5a53-4242-9e70-0b07defcc42c,78e0fe3d-b381-42a2-82cf-076513bf3edd)_rl 31.0580604782777
c(66c95ae3-5a53-4242-9e70-0b07defcc42c,78e0fe3d-b381-42a2-82cf-076513bf3edd)_ru 0
c(144f0636-dd5e-4687-9f1f-5a520e137ae7,2ea9f62c-f173-44bf-baa7-f60a284a1ad6)_rl 2.5704802545205450e+02
c(144f0636-dd5e-4687-9f1f-5a520e137ae7,2ea9f62c-f173-44bf-baa7-f60a284a1ad6)_ru 0
c(04b23b2e-8d12-42c5-84c8-00b3941773d8,8503cb31-4ec7-4e88-ac4e-a57dfb9c34a6)_rl 6.3087891179167144e+01
c(04b23b2e-8d12-42c5-84c8-00b3941773d8,8503cb31-4ec7-4e88-ac4e-a57dfb9c34a6)_ru 0
c(3c195242-1784-4dcc-87e9-dc24fc882804,2e6352b3-4511-4bcd-af78-f7f1f0e45b9c)_rl 69.2017981989251
c(3c195242-1784-4dcc-87e9-dc24fc882804,2e6352b3-4511-4bcd-af78-f7f1f0e45b9c)_ru 0
c(7a768445-f127-4d8f-af6e-b5a86164457f,c7568ea9-0ed6-4bb7-8ef2-40db47602685)_rl 4.4084934745265862e+01
c(7a768445-f127-4d8f-af6e-b5a86164457f,c7568ea9-0ed6-4bb7-8ef2-40db47602685)_ru 0
c(2e6352b3-4511-4bcd-af78-f7f1f0e45b9c,2ea9f62c-f173-44bf-baa7-f60a284a1ad6)_rl 0
c(2e6352b3-4511-4bcd-af78-f7f1f0e45b9c,2ea9f62c-f173-44bf-baa7-f60a284a1ad6)_ru 0
c(2e928fb6-73fc-4dd9-983a-5a5c5b943425,fb7ffd1b-2073-46f4-843b-cfef44804024)_rl 2.0035744582572727e+02
c(2e928fb6-73fc-4dd9-983a-5a5c5b943425,fb7ffd1b-2073-46f4-843b-cfef44804024)_ru 0
c(9f8c8221-5934-4980-802f-a818725d700d,bae59e9a-4bc6-4e4a-8b07-c5a880eaac5a)_rl 3.2835486396621015e+01
c(9f8c8221-5934-4980-802f-a818725d700d,bae59e9a-4bc6-4e4a-8b07-c5a880eaac5a)_ru 0
c(cd23f539-e57e-4a09-87b2-f2e307cf52e9,c7568ea9-0ed6-4bb7-8ef2-40db47602685)_rl 0
c(cd23f539-e57e-4a09-87b2-f2e307cf52e9,c7568ea9-0ed6-4bb7-8ef2-40db47602685)_ru 2.3158611833675477e+02
c(ddccf8ba-f655-4def-8967-f765273e46d1,818cb926-65c4-45aa-a462-f40cec73c6e9)_rl 0
c(ddccf8ba-f655-4def-8967-f765273e46d1,818cb926-65c4-45aa-a462-f40cec73c6e9)_ru 4.0481274662658265e+01
c(00c2f939-33fc-4d16-84d9-ac174284b349,818cb926-65c4-45aa-a462-f40cec73c6e9)_rl 3.2425478273229672e+01
c(00c2f939-33fc-4d16-84d9-ac174284b349,818cb926-65c4-45aa-a462-f40cec73c6e9)_ru 3.5238004396602638e+00
c(675941c3-cc5f-46b0-a781-df1b28c76579,311ed010-edab-402d-bf53-d296c289e530)_rl 0
c(675941c3-cc5f-46b0-a781-df1b28c76579,311ed010-edab-402d-bf53-d296c289e530)_ru 60.2755590497629
c(16e94c58-d989-4777-9484-613ebd1bb5d6,a9e4b64a-57aa-40d2-b994-78125cf9abf7)_rl 9.6596492331367525e+00
c(16e94c58-d989-4777-9484-613ebd1bb5d6,a9e4b64a-57aa-40d2-b994-78125cf9abf7)_ru 0
c(89b48b7c-dffe-4927-ae2b-378ff8e49a01,d41f2add-aa52-4d1a-900d-0dadf34c29b8)_rl 0
c(89b48b7c-dffe-4927-ae2b-378ff8e49a01,d41f2add-aa52-4d1a-900d-0dadf34c29b8)_ru 0
c(8455dd1f-dba9-4fb7-abc5-8725101def03,c7568ea9-0ed6-4bb7-8ef2-40db47602685)_rl 0
c(8455dd1f-dba9-4fb7-abc5-8725101def03,c7568ea9-0ed6-4bb7-8ef2-40db47602685)_ru 3.6868750111099935e+01
c(909aabe8-90c0-47ab-a736-107883f4fdd0,4a46f386-187f-4473-9b30-cec15e5f0a7b)_rl 0
c(909aabe8-90c0-47ab-a736-107883f4fdd0,4a46f386-187f-4473-9b30-cec15e5f0a7b)_ru 0
c(eefc1549-bad0-4f4e-85f4-158f5c5f2d60,c7568ea9-0ed6-4bb7-8ef2-40db47602685)_rl 4.4550378859603018e+02
c(eefc1549-bad0-4f4e-85f4-158f5c5f2d60,c7568ea9-0ed6-4bb7-8ef2-40db47602685)_ru 0
c(7d1b85a1-7b48-4b14-bfe9-17a9985717dd,92cfe830-631c-4576-8467-3f957b3cabdf)_rl 5.2099079935372652e+02
c(7d1b85a1-7b48-4b14-bfe9-17a9985717dd,92cfe830-631c-4576-8467-3f957b3cabdf)_ru 0
c(0dfd880e-fb69-47b1-afca-364222ebadcd,aa4a50c7-c753-4f82-9897-a1ea5596a709)_rl 4.7316111598310520e+01
c(0dfd880e-fb69-47b1-afca-364222ebadcd,aa4a50c7-c753-4f82-9897-a1ea5596a709)_ru 0
c(493c43ba-33b4-4597-a16f-3e68cb7fb21f,37e908d6-b411-4e18-86f1-22adf9ce931b)_rl 4.6143491541455191e+01
c(493c43ba-33b4-4597-a16f-3e68cb7fb21f,37e908d6-b411-4e18-86f1-22adf9ce931b)_ru 0
c(55f633d1-2605-4ac8-a9c3-d74e719b41b8,019868b7-2b1e-42ce-8181-1d82144732be)_rl 1.2809183816033880e+02
c(55f633d1-2605-4ac8-a9c3-d74e719b41b8,019868b7-2b1e-42ce-8181-1d82144732be)_ru 0
c(55ccbc9a-3bf5-4cbe-9072-296a19e2da10,2e6352b3-4511-4bcd-af78-f7f1f0e45b9c)_rl 0
c(55ccbc9a-3bf5-4cbe-9072-296a19e2da10,2e6352b3-4511-4bcd-af78-f7f1f0e45b9c)_ru 1.1115077708451633e+02
c(e5949c1c-14f8-49e6-8056-57208e077d58,019868b7-2b1e-42ce-8181-1d82144732be)_rl 0
c(e5949c1c-14f8-49e6-8056-57208e077d58,019868b7-2b1e-42ce-8181-1d82144732be)_ru 3.0241648849449589e+01
c(1c9426ce-df65-4940-9734-072bb89221cc,b16fe0bf-b27c-4eb5-bd94-9ce1bb0f4e9c)_rl 0
c(1c9426ce-df65-4940-9734-072bb89221cc,b16fe0bf-b27c-4eb5-bd94-9ce1bb0f4e9c)_ru 1.1286897763911482e+02
c(76897d81-aebd-4cb5-a663-6f43f153a05d,3129c63a-ce91-4973-81df-d1f9fc132ced)_rl 4.1907490647526423e+01
c(76897d81-aebd-4cb5-a663-6f43f153a05d,3129c63a-ce91-4973-81df-d1f9fc132ced)_ru 0
c(70d6d2d0-a6dd-450b-a96a-200328a8f964,f6da244a-de2f-487c-8002-ddfec0bfea84)_rl 0
c(70d6d2d0-a6dd-450b-a96a-200328a8f964,f6da244a-de2f-487c-8002-ddfec0bfea84)_ru 0
c(3b271760-9513-4d64-a62b-e3d1944b9d48,2ea9f62c-f173-44bf-baa7-f60a284a1ad6)_rl 0
c(3b271760-9513-4d64-a62b-e3d1944b9d48,2ea9f62c-f173-44bf-baa7-f60a284a1ad6)_ru 6.2402285013449628e+01
c(1fa61e06-da2d-40d4-952a-139c549ac2f0,67879088-2cbb-49cb-81bc-c1de65fe0eb8)_rl 8.6875849030710060e+02
c(1fa61e06-da2d-40d4-952a-139c549ac2f0,67879088-2cbb-49cb-81bc-c1de65fe0eb8)_ru 0
c(183040cb-57bd-436f-bb42-a51190ec3f7c,36e0828a-3801-450b-9f5b-66edd1d61780)_rl 3.6011394829577277e+01
c(183040cb-57bd-436f-bb42-a51190ec3f7c,36e0828a-3801-450b-9f5b-66edd1d61780)_ru 0
c(63dc5ed8-44a3-4c71-bcc8-10066d4f6298,07566621-beec-4e1e-a1f4-7c7589665937)_rl 1.0961130234779880e+03
c(63dc5ed8-44a3-4c71-bcc8-10066d4f6298,07566621-beec-4e1e-a1f4-7c7589665937)_ru 0
c(7b9066ad-4f7d-4f78-ab62-a5d8a0e8bd56,37e908d6-b411-4e18-86f1-22adf9ce931b)_rl 0
c(7b9066ad-4f7d-4f78-ab62-a5d8a0e8bd56,37e908d6-b411-4e18-86f1-22adf9ce931b)_ru 4.4718583579345982e+01
c(a926acad-4ced-49c9-81ef-098d98865af7,4f4159bf-d4b1-42bd-8ad9-ad1cf61ce3d4)_rl 0
c(a926acad-4ced-49c9-81ef-098d98865af7,4f4159bf-d4b1-42bd-8ad9-ad1cf61ce3d4)_ru 5.6859308393333706e+01
c(0bd53a4d-78a5-459b-a0c0-777121fdcbd8,fb7ffd1b-2073-46f4-843b-cfef44804024)_rl 2.7271706183569595e+01
c(0bd53a4d-78a5-459b-a0c0-777121fdcbd8,fb7ffd1b-2073-46f4-843b-cfef44804024)_ru 0
c(019868b7-2b1e-42ce-8181-1d82144732be,2e6352b3-4511-4bcd-af78-f7f1f0e45b9c)_rl 0
c(019868b7-2b1e-42ce-8181-1d82144732be,2e6352b3-4511-4bcd-af78-f7f1f0e45b9c)_ru 0
c(2ea9f62c-f173-44bf-baa7-f60a284a1ad6,6a056d12-b4b7-4914-8b04-87b6343b5ead)_rl 0
c(2ea9f62c-f173-44bf-baa7-f60a284a1ad6,6a056d12-b4b7-4914-8b04-87b6343b5ead)_ru 0
c(475c2f5b-9103-4bb7-9fe1-2e4a0c862d71,9200a890-16b9-4921-a1cd-166a15b95dfc)_rl 3.3083377538626038e+01
c(475c2f5b-9103-4bb7-9fe1-2e4a0c862d71,9200a890-16b9-4921-a1cd-166a15b95dfc)_ru 0
c(a687ff5d-7c0f-4a12-8dfe-4cf747808e59,019868b7-2b1e-42ce-8181-1d82144732be)_rl 2.6402114490402113e+01
c(a687ff5d-7c0f-4a12-8dfe-4cf747808e59,019868b7-2b1e-42ce-8181-1d82144732be)_ru 0
c(28cd1d5f-5055-46ff-a87a-8784e84f2ffc,38b3c5d2-ff81-4102-b705-3553bdfd98ea)_rl 3.0480262976149159e+01
c(28cd1d5f-5055-46ff-a87a-8784e84f2ffc,38b3c5d2-ff81-4102-b705-3553bdfd98ea)_ru 0
c(340bb987-2446-4e4e-8740-128a28a3f23c,2e6352b3-4511-4bcd-af78-f7f1f0e45b9c)_rl 8.4780212143745544e+01
c(340bb987-2446-4e4e-8740-128a28a3f23c,2e6352b3-4511-4bcd-af78-f7f1f0e45b9c)_ru 0
c(75b1b917-565f-4ff7-abbd-c9705db6f0be,2ea9f62c-f173-44bf-baa7-f60a284a1ad6)_rl 0
c(75b1b917-565f-4ff7-abbd-c9705db6f0be,2ea9f62c-f173-44bf-baa7-f60a284a1ad6)_ru 3.7901545103128007e+02
c(d366257b-008d-49d1-8f9a-cd01f30a6f7b,3129c63a-ce91-4973-81df-d1f9fc132ced)_rl 3.7847595951619786e+02
c(d366257b-008d-49d1-8f9a-cd01f30a6f7b,3129c63a-ce91-4973-81df-d1f9fc132ced)_ru 0
c(15f89bfa-1fc3-44bc-8727-c4dc198c123b,3104466b-088d-4cb3-a65b-f168dad0f88e)_rl 3.9098182202225409e+01
c(15f89bfa-1fc3-44bc-8727-c4dc198c123b,3104466b-088d-4cb3-a65b-f168dad0f88e)_ru 0
c(5657ce27-48f9-4d49-a23a-e01d80158c68,7c9407ad-4ce6-4684-b888-2343bc04970c)_rl 1.3635720662931442e+02
c(5657ce27-48f9-4d49-a23a-e01d80158c68,7c9407ad-4ce6-4684-b888-2343bc04970c)_ru 0
c(4414e69b-3d0f-46b7-9d30-e94639ae08c4,37e908d6-b411-4e18-86f1-22adf9ce931b)_rl 0
c(4414e69b-3d0f-46b7-9d30-e94639ae08c4,37e908d6-b411-4e18-86f1-22adf9ce931b)_ru 4.3065001263934917e+01
c(5823697c-7d26-458e-ae3b-7c52c1ba2009,019868b7-2b1e-42ce-8181-1d82144732be)_rl 0
c(5823697c-7d26-458e-ae3b-7c52c1ba2009,019868b7-2b1e-42ce-8181-1d82144732be)_ru 6.2723656961964662e+02
c(aaf9b816-0311-4f8f-8536-9b5a3be74ce9,019868b7-2b1e-42ce-8181-1d82144732be)_rl 0
c(aaf9b816-0311-4f8f-8536-9b5a3be74ce9,019868b7-2b1e-42ce-8181-1d82144732be)_ru 6.1166130258631846e+01
lambda[0] 0
lambda[1] 0
lambda[2] 0
lambda[3] 0
lambda[4] 0
lambda[5] 0
lambda[6] 0
lambda[7] 0
lambda[8] 0
lambda[9] 0
lambda[10] 0
lambda[11] 0
lambda[12] 0
lambda[13] 0
lambda[14] 0
lambda[15] 0
lambda[16] 0
lambda[17] 0
lambda[18] 0
lambda[19] 0
lambda[20] 0
lambda[21] 0
lambda[22] 0
lambda[23] 0
lambda[24] 0
lambda[25] 0
lambda[26] 0
lambda[27] 0
lambda[28] 0
lambda[29] 0
lambda[30] 0
lambda[31] 0
lambda[32] 0
lambda[33] 0
lambda[34] 0
lambda[35] 0
lambda[36] 0
lambda[37] 0
lambda[38] 0
lambda[39] 0
lambda[40] 0
lambda[41] 0
lambda[42] 0
lambda[43] 0
lambda[44] 0
lambda[45] 0
lambda[46] 0
lambda[47] 0
lambda[48] 0
lambda[49] 0
lambda[50] 0
lambda[51] 0
lambda[52] 0
lambda[53] 0
lambda[54] 0
lambda[55] 0
lambda[56] 0
lambda[57] 0
lambda[58] 0
lambda[59] 0
lambda[60] 0
lambda[61] 0
lambda[62] 0
lambda[63] 0
lambda[64] 0
lambda[65] 0
lambda[66] 0
lambda[67] 0
lambda[68] 0
lambda[69] 0
lambda[70] 0
lambda[71] 0
lambda[72] 0
lambda[73] 0
lambda[74] 0
lambda[75] 0
lambda[76] 0
lambda[77] 0
lambda[78] 0
lambda[79] 0
lambda[80] 0
lambda[81] 0
lambda[82] 0
lambda[83] 0
lambda[84] 0
lambda[85] 0
lambda[86] 0
lambda[87] 0
lambda[88] 0
lambda[89] 0
lambda[90] 0
lambda[91] 0
lambda[92] 0
lambda[93] 0
lambda[94] 0
lambda[95] 0
lambda[96] 0
lambda[97] 0
lambda[98] 0
lambda[99] 0
lambda[100] 0
lambda[101] 0
lambda[102] 0
lambda[103] 0
lambda[104] 0
lambda[105] 0
lambda[106] 0
lambda[107] 0
lambda[108] 0
lambda[109] 0
lambda[110] 0
lambda[111] 0
lambda[112] 0
lambda[113] 0
lambda[114] 0
lambda[115] 0
lambda[116] 0
lambda[117] 0
lambda[118] 0
lambda[119] 0
lambda[120] 0
lambda[121] 0
lambda[122] 0
lambda[123] 0
lambda[124] 0
lambda[125] 0
lambda[126] 0
lambda[127] 0
lambda[128] 0
lambda[129] 0
lambda[130] 0
lambda[131] 0
lambda[132] 0
lambda[133] 0
lambda[134] 0
lambda[135] 0
lambda[136] 0
lambda[137] 0
lambda[138] 0
lambda[139] 0
lambda[140] 0
lambda[141] 0
lambda[142] 0
lambda[143] 0
lambda[144] 0
lambda[145] 0
lambda[146] 0
lambda[147] 0
lambda[148] 0
lambda[149] 0
lambda[150] 0
lambda[151] 0
lambda[152] 0
lambda[153] 0
lambda[154] 0
lambda[155] 0
lambda[156] 0
lambda[157] 0
lambda[158] 0
lambda[159] 0
lambda[160] 0
lambda[161] 0
lambda[162] 0
lambda[163] 0
lambda[164] 0
lambda[165] 0
lambda[166] 0
lambda[167] 0
lambda[168] 0
lambda[169] 0
lambda[170] 0
lambda[171] 0
lambda[172] 0
lambda[173] 0
lambda[174] 0
lambda[175] 0
lambda[176] 0
lambda[177] 0
lambda[178] 6.9839952391320959e-01
lambda[179] 3.0160047608679041e-01
phi[0] 2.2314355131420965e-01
